<number of tasks>
25

<cycle time>
18

<task times>
1 4
2 3
3 9
4 5
5 9
6 4
7 8
8 7
9 5
10 1
11 3
12 1
13 5
14 3
15 5
16 3
17 13
18 5
19 2
20 3
21 7
22 5
23 3
24 8
25 4

<precedence relations>
1,3
2,3
3,4
4,5
4,8
5,6
6,7
6,10
7,11
7,12
8,9
8,11
9,10
9,13
11,13
12,15
13,14
14,16
14,19
14,20
15,17
15,22
16,18
17,18
17,23
18,25
19,22
20,21
20,25
21,22
21,24
23,25

<setup times forward>
1,2:1
2,1:1
2,3:1
3,4:1
4,8:2
5,6:1
5,8:2
6,8:1
6,9:1
7,8:1
7,9:1
7,11:1
8,5:2
8,6:1
8,7:1
8,9:2
8,12:1
8,17:2
8,23:2
9,6:1
9,7:1
9,10:1
9,11:2
9,12:1
9,15:2
10,11:1
10,13:1
10,14:1
10,15:1
10,16:1
10,17:1
10,19:1
10,20:1
10,21:1
10,22:1
10,23:1
11,9:2
11,10:1
11,12:1
11,13:2
11,17:2
11,23:2
12,8:1
12,9:1
12,11:1
12,13:1
12,14:1
12,15:1
12,16:1
12,19:1
12,20:1
12,21:1
13,10:1
13,12:1
13,15:2
14,10:1
14,12:1
14,15:2
14,16:2
15,9:2
15,10:1
15,13:2
15,14:2
15,17:2
15,19:2
15,20:2
15,21:2
15,24:1
16,10:1
16,12:1
16,17:2
16,18:1
16,19:2
16,20:2
16,21:2
16,23:2
16,24:1
17,8:2
17,10:1
17,11:2
17,16:2
17,18:1
17,22:2
17,24:1
18,19:1
18,20:1
18,21:1
18,22:1
18,23:1
19,10:1
19,12:1
19,15:2
19,16:2
19,18:1
19,22:2
19,24:1
19,25:1
20,10:1
20,12:1
20,15:2
20,16:2
20,18:1
20,25:1
21,10:1
21,12:1
21,15:2
21,16:2
21,18:1
21,22:2
21,24:1
21,25:1
22,10:1
22,17:2
22,18:1
22,23:2
22,24:1
22,25:1
23,8:2
23,10:1
23,11:2
23,16:2
23,18:1
23,22:2
23,24:1
23,25:1
24,15:1
24,16:1
24,17:1
24,19:1
24,22:1
24,23:1
25,19:1
25,21:1
25,22:1

<setup times backward>
1,1:3
1,2:2
2,1:4
2,2:3
3,1:3
3,2:2
3,3:3
4,1:4
4,2:3
4,3:4
4,4:3
5,1:4
5,2:3
5,3:4
5,4:3
5,5:3
5,8:5
5,9:3
6,1:3
6,2:2
6,3:3
6,4:2
6,5:2
6,6:3
6,8:4
6,9:2
7,1:3
7,2:2
7,3:3
7,4:2
7,5:2
7,6:3
7,7:3
7,8:4
7,9:2
7,10:3
8,1:2
8,2:1
8,3:2
8,4:1
8,5:1
8,6:2
8,7:2
8,8:3
8,12:2
8,15:3
8,17:1
8,23:1
9,1:4
9,2:3
9,3:4
9,4:3
9,5:3
9,6:4
9,7:4
9,8:5
9,9:3
9,11:5
9,12:4
9,15:5
9,17:3
9,23:3
10,1:3
10,2:2
10,3:3
10,4:2
10,5:2
10,6:3
10,7:3
10,8:4
10,9:2
10,10:3
10,11:4
10,12:3
10,13:2
10,14:2
10,15:4
10,16:4
10,17:2
10,18:3
10,19:2
10,20:2
10,21:2
10,22:4
10,23:2
10,24:3
10,25:3
11,1:2
11,2:1
11,3:2
11,4:1
11,5:1
11,6:2
11,7:2
11,8:3
11,9:1
11,10:2
11,11:3
11,12:2
11,15:3
11,17:1
11,23:1
12,1:3
12,2:2
12,3:3
12,4:2
12,5:2
12,6:3
12,7:3
12,8:4
12,9:2
12,10:3
12,11:4
12,12:3
12,13:2
12,14:2
12,16:4
12,19:2
12,20:2
12,21:2
12,24:3
13,1:4
13,2:3
13,3:4
13,4:3
13,5:3
13,6:4
13,7:4
13,8:5
13,9:3
13,10:4
13,11:5
13,12:4
13,13:3
13,15:5
13,17:3
13,23:3
14,1:4
14,2:3
14,3:4
14,4:3
14,5:3
14,6:4
14,7:4
14,8:5
14,9:3
14,10:4
14,11:5
14,12:4
14,13:3
14,14:3
14,15:5
14,17:3
14,23:3
15,1:2
15,2:1
15,3:2
15,4:1
15,5:1
15,6:2
15,7:2
15,8:3
15,9:1
15,10:2
15,11:3
15,12:2
15,13:1
15,14:1
15,15:3
15,16:3
15,19:1
15,20:1
15,21:1
15,24:2
16,1:2
16,2:1
16,3:2
16,4:1
16,5:1
16,6:2
16,7:2
16,8:3
16,9:1
16,10:2
16,11:3
16,12:2
16,13:1
16,14:1
16,15:3
16,16:3
16,17:1
16,19:1
16,20:1
16,21:1
16,22:3
16,23:1
16,24:2
17,1:4
17,2:3
17,3:4
17,4:3
17,5:3
17,6:4
17,7:4
17,8:5
17,9:3
17,10:4
17,11:5
17,12:4
17,13:3
17,14:3
17,15:5
17,16:5
17,17:3
17,19:3
17,20:3
17,21:3
17,22:5
17,24:4
18,1:3
18,2:2
18,3:3
18,4:2
18,5:2
18,6:3
18,7:3
18,8:4
18,9:2
18,10:3
18,11:4
18,12:3
18,13:2
18,14:2
18,15:4
18,16:4
18,17:2
18,18:3
18,19:2
18,20:2
18,21:2
18,22:4
18,23:2
18,24:3
19,1:4
19,2:3
19,3:4
19,4:3
19,5:3
19,6:4
19,7:4
19,8:5
19,9:3
19,10:4
19,11:5
19,12:4
19,13:3
19,14:3
19,15:5
19,16:5
19,17:3
19,18:4
19,19:3
19,20:3
19,21:3
19,23:3
19,24:4
19,25:4
20,1:4
20,2:3
20,3:4
20,4:3
20,5:3
20,6:4
20,7:4
20,8:5
20,9:3
20,10:4
20,11:5
20,12:4
20,13:3
20,14:3
20,15:5
20,16:5
20,17:3
20,18:4
20,19:3
20,20:3
20,23:3
21,1:4
21,2:3
21,3:4
21,4:3
21,5:3
21,6:4
21,7:4
21,8:5
21,9:3
21,10:4
21,11:5
21,12:4
21,13:3
21,14:3
21,15:5
21,16:5
21,17:3
21,18:4
21,19:3
21,20:3
21,21:3
21,23:3
21,25:4
22,1:2
22,2:1
22,3:2
22,4:1
22,5:1
22,6:2
22,7:2
22,8:3
22,9:1
22,10:2
22,11:3
22,12:2
22,13:1
22,14:1
22,15:3
22,16:3
22,17:1
22,18:2
22,19:1
22,20:1
22,21:1
22,22:3
22,23:1
22,24:2
22,25:2
23,1:4
23,2:3
23,3:4
23,4:3
23,5:3
23,6:4
23,7:4
23,8:5
23,9:3
23,10:4
23,11:5
23,12:4
23,13:3
23,14:3
23,15:5
23,16:5
23,17:3
23,18:4
23,19:3
23,20:3
23,21:3
23,22:5
23,23:3
23,24:4
24,1:3
24,2:2
24,3:3
24,4:2
24,5:2
24,6:3
24,7:3
24,8:4
24,9:2
24,10:3
24,11:4
24,12:3
24,13:2
24,14:2
24,15:4
24,16:4
24,17:2
24,18:3
24,19:2
24,20:2
24,21:2
24,22:4
24,23:2
24,24:3
24,25:3
25,1:3
25,2:2
25,3:3
25,4:2
25,5:2
25,6:3
25,7:3
25,8:4
25,9:2
25,10:3
25,11:4
25,12:3
25,13:2
25,14:2
25,15:4
25,16:4
25,17:2
25,18:3
25,19:2
25,20:2
25,21:2
25,22:4
25,23:2
25,24:3
25,25:3

<end>

<optimal SALBP-1 value>
8


<rand seed>
467321153

